language ESSENCE' 1.0
$ Minion SolverNodes: 136583
$ Minion SolverTotalTime: 4.3017
$ Minion SolverTimeOut: 0
$ Savile Row TotalTime: 0.837
letting carrying be [4, 2, 3, 3, 3, 0, 0, 4, 5, 5, 6, 6]
letting registers be [[-1, -1, -1, -1, -1, -1, -1, -1, -1, -1, -1, -1], 
[-1, -1, -1, -1, -1, -1, -1, -1, -1, -1, -1, -1], 
[-1, -1, -1, 3, 3, 3, 3, 4, 5, 5, 6, 6]]
letting steps be [1, 1, 1, 4, 3, 6, 2, 7, 7, 2, 7, 2]
